<number of tasks>
20


<number of equipment>
5


<cycle time>
1000


<investment costs>
1,21307
2,28741
3,23835
4,6326
5,24437


<task times>
1,-1,-1,455,657,501
2,-1,-1,441,674,436
3,-1,-1,445,561,451
4,-1,490,531,-1,461
5,-1,406,443,-1,438
6,-1,446,529,-1,513
7,-1,466,473,-1,457
8,-1,-1,423,634,433
9,-1,447,447,-1,439
10,-1,-1,466,590,441
11,-1,-1,454,631,457
12,-1,-1,481,604,470
13,483,-1,-1,-1,470
14,-1,-1,473,647,446
15,-1,-1,445,655,441
16,-1,446,589,-1,446
17,-1,-1,558,686,555
18,424,-1,-1,-1,415
19,488,-1,-1,-1,449
20,-1,368,409,-1,427


<precedence relations>
1,4
2,4
2,5
3,4
4,6
5,6
6,7
6,8
6,9
7,10
7,11
8,10
8,11
9,10
9,11
10,12
10,14
11,12
11,13
12,16
14,15
15,17
15,18
16,20
17,20
18,19


<task types>
1,3
2,3
3,3
4,2
5,2
6,2
7,2
8,3
9,2
10,3
11,3
12,3
13,1
14,3
15,3
16,2
17,3
18,1
19,1
20,2


<line depot>
1,2
2,0
3,3
4,10
5,2


<processing costs>
1,7200
2,7200
3,14400
4,7200
5,21600


<saving costs>
1,2130
2,2874
3,2383
4,632
5,2443


<end>
